NAME: test1194
TYPE: TSP
DIMENSION: 11
EDGE_WEIGHT_TYPE: EUC_2D
NODE_COORD_SECTION
1 37.74021625230598 75.38207951770572
2 3.5514423459389377 65.33020192683126
3 90.12358085394249 99.33972752058156
4 89.78802818568276 93.82268013553197
5 69.47933493960137 51.96376542759479
6 66.10825762126021 25.79299591501476
7 97.46934608981796 74.18155295058999
8 55.39755902036955 29.31295516209006
9 45.04285902718329 23.71849751603842
10 77.93042906764005 80.25164824716457
11 42.07675933867085 79.70841199866973
EOF
